\ENCODING=ISO-8859-1
\Problem name: IloCplex

Minimize
 obj: Y_5 + Y_11 + Y_17 + Y_23 + Y_29 + Y_35 + Y_41 + Y_47 + Y_53 + Y_59
      + 3 Y_66 + 3 Y_67 + 3 Y_68 + 3 Y_69 + 3 Y_70 + 3 Y_71 + 3 Y_72 + 3 Y_73
      + 3 Y_74 + 3 Y_75 + 3 Y_76 + 3 Y_77 + 3 Y_78 + 3 Y_79 + 3 Y_80 + 3 Y_81
      + 3 Y_82 + 3 Y_83 + 3 Y_84 + 3 Y_85 + 3 Y_86 + 3 Y_87 + 3 Y_88 + 3 Y_89
      + 3 Y_90 + 3 Y_91 + 3 Y_92 + 3 Y_93 + 3 Y_94 + 3 Y_95 + 3 Y_96 + 3 Y_97
      + 3 Y_98 + 3 Y_99 + 3 Y_100 + 3 Y_101 + 3 Y_102 + 3 Y_103 + 3 Y_104
      + 3 Y_105 + 3 Y_106 + 3 Y_107 + 3 Y_108 + 3 Y_109 + 3 Y_110 + 3 Y_111
      + 3 Y_112 + 3 Y_113 + 3 Y_114 + 3 Y_115 + 3 Y_116 + 3 Y_117 + 3 Y_118
      + 3 Y_119 + 3 Y_120 + 3 Y_121 + 3 Y_122 + 3 Y_123 + 3 Y_124 + 3 Y_125
      + 3 Y_126 + 3 Y_127 + 3 Y_128 + 3 Y_129 + 3 Y_130 + 3 Y_131 + 3 Y_132
      + 3 Y_133 + 3 Y_134 + 3 Y_135 + 3 Y_136 + 3 Y_137 + 3 Y_138 + 3 Y_139
      + 3 Y_140 + 3 Y_141 + 3 Y_142 + 3 Y_143 + 3 Y_144 + 3 Y_145 + 3 Y_146
      + 3 Y_147 + 3 Y_148 + 3 Y_149 + 3 Y_150 + 3 Y_151 + 3 Y_152 + 3 Y_153
      + 3 Y_154 + 3 Y_155 + 3 Y_156 + 3 Y_157 + 3 Y_158 + 3 Y_159 + 3 Y_160
      + 3 Y_161 + 3 Y_162 + 3 Y_163 + 3 Y_164 + 3 Y_165 + 3 Y_166 + 3 Y_167
      + 3 Y_168 + 3 Y_169 + 3 Y_170 + 3 Y_171 + 3 Y_172 + 3 Y_173 + 3 Y_174
      + 3 Y_175 + 3 Y_176 + 3 Y_177 + 3 Y_178 + 3 Y_179 + 3 Y_180 + 3 Y_181
      + 3 Y_182 + 3 Y_183 + 3 Y_184 + 3 Y_185 + 3 Y_186 + 3 Y_187 + 3 Y_188
      + 3 Y_189 + 3 Y_190 + 3 Y_191 + 3 Y_192 + 3 Y_193 + 3 Y_194 + 3 Y_195
      + 3 Y_196 + 3 Y_197 + 3 Y_198 + 3 Y_199 + 3 Y_200 + 3 Y_201 + 3 Y_202
      + 3 Y_203 + 3 Y_204 + 3 Y_205 + 3 Y_206 + 3 Y_207 + 3 Y_208 + 3 Y_209
      + 3 Y_210 + 3 Y_211 + 3 Y_212 + 3 Y_213 + 3 Y_214 + 3 Y_215 + 3 Y_216
      + 3 Y_217 + 3 Y_218 + 3 Y_219 + 3 Y_220 + 3 Y_221 + 3 Y_222 + 3 Y_223
      + 3 Y_224 + 3 Y_225 + 3 Y_226 + 3 Y_227 + 3 Y_228 + 3 Y_229 + 3 Y_230
      + 3 Y_231 + 3 Y_232 + 3 Y_233 + 3 Y_234 + 3 Y_235 + 3 Y_236 + 3 Y_237
      + 3 Y_238 + 3 Y_239 + 3 Y_240 + 3 Y_241 + 3 Y_242 + 3 Y_243 + 3 Y_244
      + 3 Y_245 + Y_246 + Y_247 + Y_248 + Y_249 + Y_250 + Y_251 + Y_252 + Y_253
      + Y_254 + Y_255 + Y_256 + Y_257 + Y_258 + Y_259 + Y_260 + 780 H_1
Subject To
 c1:    Z_2 + Z5  = 1
 c2:    Z5 + Z_1  = 1
 c3:    Z5 + Z_1  = 1
 c4:    Z5 + Z_4  = 1
 c5:    Z5 + Z_4  = 1
 c6:    Z5 + Z_3  = 1
 c7:    Z5 + Z_3  = 1
 c8:    Z_2 + Z5  = 1
 c9:    Z_2 + Z5  = 1
 c10:   Z5 + Z_1  = 1
 c11:   Z5 + Z_1  = 1
 c12:   Z5 + Z_4  = 1
 c13:   Z5 + Z_3  = 1
 c14:   Z_2 + Z5  = 1
 c15:   Z5 + Z_1  = 1
 c16:   Z5 + Z_4  = 1
 c17:   Z5 + Z_3  = 1
 c18:   Z_2 + Z5  = 1
 c19:   Z5 + Z_1  = 1
 c20:   Z5 + Z_4  = 1
 c21:   Z_3  = 1
 c22:   Z_4  = 1
 c23:   Z_2  = 1
 c24:   Z_2  = 1
 c25:   Z_1  = 1
 c26:   Z_3  = 1
 c27:   Z5 + Z_4  = 1
 c28:   Z_2  = 1
 c29:   Z5 + Z_3  = 1
 c30:   Z_2 + Z5  = 1
 c31:   Z_3  = 1
 c32:   Z_1  = 1
 c33:   Z5 + Z_1  = 1
 c34:   Z_4  = 1
 c35:   Z5 + Z_3  = 1
 c36:   Z_2 + Z5  = 1
 c37:   Z5 + Z_1  = 1
 c38:   Z5 + Z_4  = 1
 c39:   Z5 + Z_3  = 1
 c40:   Z_2 + Z5  = 1
 c41:   Z5 + Z_1  = 1
 c42:   Z5 + Z_4  = 1
 c43:   Z5 + Z_3  = 1
 c44:   Z_2 + Z5  = 1
 c45:   Z5 + Z_1  = 1
 c46:   Z5 + Z_4  = 1
 c47:   Z5 + Z_3  = 1
 c48:   Z_2 + Z5  = 1
 c49:   Z5 + Z_1  = 1
 c50:   Z5 + Z_4  = 1
 c51:   - Z_1 + Y_1 >= 0
 c52:   Y_2 >= 0
 c53:   - Z_1 + Y_3 >= 0
 c54:   Y_4 >= 0
 c55:   Y_5 - Z_1 >= 0
 c56:   Y_6 >= 0
 c57:   - Z_1 + Y_7 >= 0
 c58:   - Z_1 + Y_8 >= 0
 c59:   Y_9 >= 0
 c60:   - Z_1 + Y_10 >= 0
 c61:   Y_11 - Z_1 >= 0
 c62:   - Z_1 + Y_12 >= 0
 c63:   Y_13 >= 0
 c64:   Y_14 >= 0
 c65:   Y_15 >= 0
 c66:   Y_16 >= 0
 c67:   Y_17 >= 0
 c68:   Y_18 >= 0
 c69:   Y_19 >= 0
 c70:   Y_20 >= 0
 c71:   Y_21 >= 0
 c72:   Y_22 >= 0
 c73:   Y_23 >= 0
 c74:   Y_24 >= 0
 c75:   - Z_1 + Y_25 >= 0
 c76:   - Z_1 + Y_26 >= 0
 c77:   Y_27 >= 0
 c78:   Y_28 >= 0
 c79:   Y_29 - Z_1 >= 0
 c80:   - Z_1 + Y_30 >= 0
 c81:   - Z_1 + Y_31 >= 0
 c82:   - Z_1 + Y_32 >= 0
 c83:   Y_33 >= 0
 c84:   Y_34 >= 0
 c85:   Y_35 - Z_1 >= 0
 c86:   - Z_1 + Y_36 >= 0
 c87:   Y_37 >= 0
 c88:   Y_38 >= 0
 c89:   Y_39 >= 0
 c90:   Y_40 >= 0
 c91:   Y_41 >= 0
 c92:   Y_42 >= 0
 c93:   - Z_1 + Y_43 >= 0
 c94:   - Z_1 + Y_44 >= 0
 c95:   Y_45 >= 0
 c96:   - Z_1 + Y_46 >= 0
 c97:   Y_47 >= 0
 c98:   Y_48 >= 0
 c99:   Y_49 >= 0
 c100:  Y_50 >= 0
 c101:  Y_51 >= 0
 c102:  Y_52 >= 0
 c103:  Y_53 >= 0
 c104:  Y_54 >= 0
 c105:  - Z_1 + Y_55 >= 0
 c106:  - Z_1 + Y_56 >= 0
 c107:  Y_57 >= 0
 c108:  Y_58 >= 0
 c109:  Y_59 - Z_1 >= 0
 c110:  - Z_1 + Y_60 >= 0
 c111:  Y_61 >= 0
 c112:  - Z_1 + Y_62 >= 0
 c113:  - Z_1 + Y_63 >= 0
 c114:  - Z_1 + Y_64 >= 0
 c115:  Y_65 >= 0
 c116:  Y_66 - Z_1 >= 0
 c117:  Y_67 >= 0
 c118:  Y_68 >= 0
 c119:  Y_69 >= 0
 c120:  Y_70 >= 0
 c121:  Y_71 >= 0
 c122:  Y_72 >= 0
 c123:  Y_73 - Z_1 >= 0
 c124:  Y_74 - Z_1 >= 0
 c125:  Y_75 >= 0
 c126:  Y_76 >= 0
 c127:  Y_77 >= 0
 c128:  Y_78 - Z_1 >= 0
 c129:  Y_79 >= 0
 c130:  Y_80 >= 0
 c131:  Y_81 >= 0
 c132:  Y_82 - Z_1 >= 0
 c133:  Y_83 >= 0
 c134:  Y_84 >= 0
 c135:  Y_85 - Z_1 >= 0
 c136:  Y_86 - Z_1 >= 0
 c137:  Y_87 - Z_1 >= 0
 c138:  Y_88 - Z_1 >= 0
 c139:  Y_89 - Z_1 >= 0
 c140:  Y_90 - Z_1 >= 0
 c141:  Y_91 >= 0
 c142:  Y_92 >= 0
 c143:  Y_93 - Z_1 >= 0
 c144:  Y_94 - Z_1 >= 0
 c145:  Y_95 - Z_1 >= 0
 c146:  Y_96 >= 0
 c147:  Y_97 - Z_1 >= 0
 c148:  Y_98 - Z_1 >= 0
 c149:  Y_99 - Z_1 >= 0
 c150:  Y_100 >= 0
 c151:  Y_101 - Z_1 >= 0
 c152:  Y_102 - Z_1 >= 0
 c153:  Y_103 - Z_1 >= 0
 c154:  Y_104 - Z_1 >= 0
 c155:  Y_105 - Z_1 >= 0
 c156:  Y_106 - Z_1 >= 0
 c157:  Y_107 >= 0
 c158:  Y_108 >= 0
 c159:  Y_109 - Z_1 >= 0
 c160:  Y_110 - Z_1 >= 0
 c161:  Y_111 - Z_1 >= 0
 c162:  Y_112 >= 0
 c163:  Y_113 - Z_1 >= 0
 c164:  Y_114 - Z_1 >= 0
 c165:  Y_115 - Z_1 >= 0
 c166:  Y_116 >= 0
 c167:  Y_117 - Z_1 >= 0
 c168:  Y_118 >= 0
 c169:  Y_119 >= 0
 c170:  Y_120 >= 0
 c171:  Y_121 >= 0
 c172:  Y_122 >= 0
 c173:  Y_123 - Z_1 >= 0
 c174:  Y_124 - Z_1 >= 0
 c175:  Y_125 >= 0
 c176:  Y_126 >= 0
 c177:  Y_127 >= 0
 c178:  Y_128 - Z_1 >= 0
 c179:  Y_129 >= 0
 c180:  Y_130 >= 0
 c181:  Y_131 >= 0
 c182:  Y_132 - Z_1 >= 0
 c183:  Y_133 >= 0
 c184:  Y_134 >= 0
 c185:  Y_135 >= 0
 c186:  Y_136 >= 0
 c187:  Y_137 - Z_1 >= 0
 c188:  Y_138 - Z_1 >= 0
 c189:  Y_139 >= 0
 c190:  Y_140 >= 0
 c191:  Y_141 >= 0
 c192:  Y_142 - Z_1 >= 0
 c193:  Y_143 >= 0
 c194:  Y_144 >= 0
 c195:  Y_145 >= 0
 c196:  Y_146 - Z_1 >= 0
 c197:  Y_147 >= 0
 c198:  Y_148 >= 0
 c199:  Y_149 >= 0
 c200:  Y_150 >= 0
 c201:  Y_151 - Z_1 >= 0
 c202:  Y_152 - Z_1 >= 0
 c203:  Y_153 >= 0
 c204:  Y_154 >= 0
 c205:  Y_155 >= 0
 c206:  Y_156 - Z_1 >= 0
 c207:  Y_157 >= 0
 c208:  Y_158 >= 0
 c209:  Y_159 >= 0
 c210:  Y_160 - Z_1 >= 0
 c211:  Y_161 >= 0
 c212:  Y_162 >= 0
 c213:  Y_163 - Z_1 >= 0
 c214:  Y_164 - Z_1 >= 0
 c215:  Y_165 >= 0
 c216:  Y_166 >= 0
 c217:  Y_167 >= 0
 c218:  Y_168 - Z_1 >= 0
 c219:  Y_169 >= 0
 c220:  Y_170 >= 0
 c221:  Y_171 >= 0
 c222:  Y_172 - Z_1 >= 0
 c223:  Y_173 >= 0
 c224:  Y_174 >= 0
 c225:  Y_175 - Z_1 >= 0
 c226:  Y_176 - Z_1 >= 0
 c227:  Y_177 >= 0
 c228:  Y_178 >= 0
 c229:  Y_179 >= 0
 c230:  Y_180 - Z_1 >= 0
 c231:  Y_181 >= 0
 c232:  Y_182 >= 0
 c233:  Y_183 >= 0
 c234:  Y_184 - Z_1 >= 0
 c235:  Y_185 >= 0
 c236:  Y_186 - Z_1 >= 0
 c237:  Y_187 >= 0
 c238:  Y_188 >= 0
 c239:  Y_189 >= 0
 c240:  Y_190 - Z_1 >= 0
 c241:  Y_191 >= 0
 c242:  Y_192 >= 0
 c243:  Y_193 >= 0
 c244:  Y_194 - Z_1 >= 0
 c245:  Y_195 >= 0
 c246:  Y_196 >= 0
 c247:  Y_197 - Z_1 >= 0
 c248:  Y_198 - Z_1 >= 0
 c249:  Y_199 - Z_1 >= 0
 c250:  Y_200 >= 0
 c251:  Y_201 - Z_1 >= 0
 c252:  Y_202 - Z_1 >= 0
 c253:  Y_203 - Z_1 >= 0
 c254:  Y_204 >= 0
 c255:  Y_205 - Z_1 >= 0
 c256:  Y_206 - Z_1 >= 0
 c257:  Y_207 - Z_1 >= 0
 c258:  Y_208 >= 0
 c259:  Y_209 - Z_1 >= 0
 c260:  Y_210 - Z_1 >= 0
 c261:  Y_211 - Z_1 >= 0
 c262:  Y_212 >= 0
 c263:  Y_213 - Z_1 >= 0
 c264:  Y_214 >= 0
 c265:  Y_215 >= 0
 c266:  Y_216 - Z_1 >= 0
 c267:  Y_217 >= 0
 c268:  Y_218 >= 0
 c269:  Y_219 >= 0
 c270:  Y_220 - Z_1 >= 0
 c271:  Y_221 >= 0
 c272:  Y_222 - Z_1 >= 0
 c273:  Y_223 >= 0
 c274:  Y_224 >= 0
 c275:  Y_225 >= 0
 c276:  Y_226 - Z_1 >= 0
 c277:  Y_227 >= 0
 c278:  Y_228 - Z_1 >= 0
 c279:  Y_229 >= 0
 c280:  Y_230 >= 0
 c281:  Y_231 >= 0
 c282:  Y_232 - Z_1 >= 0
 c283:  Y_233 >= 0
 c284:  Y_234 - Z_1 >= 0
 c285:  Y_235 - Z_1 >= 0
 c286:  Y_236 >= 0
 c287:  Y_237 - Z_1 >= 0
 c288:  Y_238 >= 0
 c289:  Y_239 >= 0
 c290:  Y_240 - Z_1 >= 0
 c291:  Y_241 >= 0
 c292:  Y_242 - Z_1 >= 0
 c293:  Y_243 >= 0
 c294:  Y_244 - Z_1 >= 0
 c295:  Y_245 >= 0
 c296:  Y_246 - Z_1 >= 0
 c297:  Y_247 - Z_1 >= 0
 c298:  Y_248 >= 0
 c299:  Y_249 >= 0
 c300:  Y_250 - Z_1 >= 0
 c301:  Y_251 - Z_1 >= 0
 c302:  Y_252 >= 0
 c303:  Y_253 >= 0
 c304:  Y_254 >= 0
 c305:  Y_255 - Z_1 >= 0
 c306:  Y_256 - Z_1 >= 0
 c307:  Y_257 >= 0
 c308:  Y_258 >= 0
 c309:  Y_259 >= 0
 c310:  Y_260 - Z_1 >= 0
 c311:  - Z_2 + Y_1 >= 0
 c312:  - Z_2 + Y_2 >= 0
 c313:  Y_3 >= 0
 c314:  Y_4 >= 0
 c315:  Y_5 - Z_2 >= 0
 c316:  - Z_2 + Y_6 >= 0
 c317:  Y_7 >= 0
 c318:  Y_8 >= 0
 c319:  Y_9 >= 0
 c320:  Y_10 >= 0
 c321:  Y_11 >= 0
 c322:  Y_12 >= 0
 c323:  Y_13 >= 0
 c324:  - Z_2 + Y_14 >= 0
 c325:  - Z_2 + Y_15 >= 0
 c326:  Y_16 >= 0
 c327:  Y_17 >= 0
 c328:  - Z_2 + Y_18 >= 0
 c329:  - Z_2 + Y_19 >= 0
 c330:  - Z_2 + Y_20 >= 0
 c331:  Y_21 >= 0
 c332:  Y_22 >= 0
 c333:  Y_23 - Z_2 >= 0
 c334:  - Z_2 + Y_24 >= 0
 c335:  - Z_2 + Y_25 >= 0
 c336:  - Z_2 + Y_26 >= 0
 c337:  Y_27 >= 0
 c338:  Y_28 >= 0
 c339:  Y_29 - Z_2 >= 0
 c340:  - Z_2 + Y_30 >= 0
 c341:  Y_31 >= 0
 c342:  Y_32 >= 0
 c343:  Y_33 >= 0
 c344:  Y_34 >= 0
 c345:  Y_35 >= 0
 c346:  Y_36 >= 0
 c347:  - Z_2 + Y_37 >= 0
 c348:  Y_38 >= 0
 c349:  - Z_2 + Y_39 >= 0
 c350:  Y_40 >= 0
 c351:  Y_41 - Z_2 >= 0
 c352:  Y_42 >= 0
 c353:  Y_43 >= 0
 c354:  - Z_2 + Y_44 >= 0
 c355:  - Z_2 + Y_45 >= 0
 c356:  Y_46 >= 0
 c357:  Y_47 >= 0
 c358:  - Z_2 + Y_48 >= 0
 c359:  - Z_2 + Y_49 >= 0
 c360:  Y_50 >= 0
 c361:  - Z_2 + Y_51 >= 0
 c362:  - Z_2 + Y_52 >= 0
 c363:  Y_53 >= 0
 c364:  - Z_2 + Y_54 >= 0
 c365:  Y_55 >= 0
 c366:  - Z_2 + Y_56 >= 0
 c367:  - Z_2 + Y_57 >= 0
 c368:  Y_58 >= 0
 c369:  Y_59 >= 0
 c370:  - Z_2 + Y_60 >= 0
 c371:  Y_61 >= 0
 c372:  Y_62 >= 0
 c373:  - Z_2 + Y_63 >= 0
 c374:  Y_64 >= 0
 c375:  Y_65 >= 0
 c376:  Y_66 - Z_2 >= 0
 c377:  Y_67 - Z_2 >= 0
 c378:  Y_68 - Z_2 >= 0
 c379:  Y_69 - Z_2 >= 0
 c380:  Y_70 - Z_2 >= 0
 c381:  Y_71 >= 0
 c382:  Y_72 >= 0
 c383:  Y_73 - Z_2 >= 0
 c384:  Y_74 - Z_2 >= 0
 c385:  Y_75 - Z_2 >= 0
 c386:  Y_76 - Z_2 >= 0
 c387:  Y_77 >= 0
 c388:  Y_78 - Z_2 >= 0
 c389:  Y_79 - Z_2 >= 0
 c390:  Y_80 - Z_2 >= 0
 c391:  Y_81 >= 0
 c392:  Y_82 - Z_2 >= 0
 c393:  Y_83 - Z_2 >= 0
 c394:  Y_84 >= 0
 c395:  Y_85 >= 0
 c396:  Y_86 >= 0
 c397:  Y_87 >= 0
 c398:  Y_88 >= 0
 c399:  Y_89 - Z_2 >= 0
 c400:  Y_90 - Z_2 >= 0
 c401:  Y_91 >= 0
 c402:  Y_92 >= 0
 c403:  Y_93 >= 0
 c404:  Y_94 >= 0
 c405:  Y_95 - Z_2 >= 0
 c406:  Y_96 >= 0
 c407:  Y_97 >= 0
 c408:  Y_98 >= 0
 c409:  Y_99 - Z_2 >= 0
 c410:  Y_100 >= 0
 c411:  Y_101 >= 0
 c412:  Y_102 >= 0
 c413:  Y_103 >= 0
 c414:  Y_104 >= 0
 c415:  Y_105 - Z_2 >= 0
 c416:  Y_106 - Z_2 >= 0
 c417:  Y_107 >= 0
 c418:  Y_108 >= 0
 c419:  Y_109 >= 0
 c420:  Y_110 >= 0
 c421:  Y_111 - Z_2 >= 0
 c422:  Y_112 >= 0
 c423:  Y_113 >= 0
 c424:  Y_114 >= 0
 c425:  Y_115 - Z_2 >= 0
 c426:  Y_116 >= 0
 c427:  Y_117 >= 0
 c428:  Y_118 >= 0
 c429:  Y_119 >= 0
 c430:  Y_120 >= 0
 c431:  Y_121 - Z_2 >= 0
 c432:  Y_122 - Z_2 >= 0
 c433:  Y_123 >= 0
 c434:  Y_124 >= 0
 c435:  Y_125 >= 0
 c436:  Y_126 >= 0
 c437:  Y_127 - Z_2 >= 0
 c438:  Y_128 >= 0
 c439:  Y_129 >= 0
 c440:  Y_130 >= 0
 c441:  Y_131 - Z_2 >= 0
 c442:  Y_132 >= 0
 c443:  Y_133 >= 0
 c444:  Y_134 >= 0
 c445:  Y_135 - Z_2 >= 0
 c446:  Y_136 - Z_2 >= 0
 c447:  Y_137 >= 0
 c448:  Y_138 >= 0
 c449:  Y_139 >= 0
 c450:  Y_140 >= 0
 c451:  Y_141 - Z_2 >= 0
 c452:  Y_142 >= 0
 c453:  Y_143 >= 0
 c454:  Y_144 >= 0
 c455:  Y_145 - Z_2 >= 0
 c456:  Y_146 >= 0
 c457:  Y_147 >= 0
 c458:  Y_148 >= 0
 c459:  Y_149 - Z_2 >= 0
 c460:  Y_150 - Z_2 >= 0
 c461:  Y_151 >= 0
 c462:  Y_152 >= 0
 c463:  Y_153 >= 0
 c464:  Y_154 >= 0
 c465:  Y_155 - Z_2 >= 0
 c466:  Y_156 >= 0
 c467:  Y_157 >= 0
 c468:  Y_158 >= 0
 c469:  Y_159 - Z_2 >= 0
 c470:  Y_160 >= 0
 c471:  Y_161 >= 0
 c472:  Y_162 - Z_2 >= 0
 c473:  Y_163 >= 0
 c474:  Y_164 >= 0
 c475:  Y_165 >= 0
 c476:  Y_166 >= 0
 c477:  Y_167 - Z_2 >= 0
 c478:  Y_168 >= 0
 c479:  Y_169 >= 0
 c480:  Y_170 >= 0
 c481:  Y_171 - Z_2 >= 0
 c482:  Y_172 >= 0
 c483:  Y_173 >= 0
 c484:  Y_174 >= 0
 c485:  Y_175 - Z_2 >= 0
 c486:  Y_176 - Z_2 >= 0
 c487:  Y_177 - Z_2 >= 0
 c488:  Y_178 - Z_2 >= 0
 c489:  Y_179 >= 0
 c490:  Y_180 - Z_2 >= 0
 c491:  Y_181 - Z_2 >= 0
 c492:  Y_182 - Z_2 >= 0
 c493:  Y_183 >= 0
 c494:  Y_184 - Z_2 >= 0
 c495:  Y_185 - Z_2 >= 0
 c496:  Y_186 - Z_2 >= 0
 c497:  Y_187 - Z_2 >= 0
 c498:  Y_188 - Z_2 >= 0
 c499:  Y_189 >= 0
 c500:  Y_190 - Z_2 >= 0
 c501:  Y_191 - Z_2 >= 0
 c502:  Y_192 - Z_2 >= 0
 c503:  Y_193 >= 0
 c504:  Y_194 - Z_2 >= 0
 c505:  Y_195 - Z_2 >= 0
 c506:  Y_196 >= 0
 c507:  Y_197 >= 0
 c508:  Y_198 >= 0
 c509:  Y_199 - Z_2 >= 0
 c510:  Y_200 >= 0
 c511:  Y_201 >= 0
 c512:  Y_202 >= 0
 c513:  Y_203 - Z_2 >= 0
 c514:  Y_204 >= 0
 c515:  Y_205 >= 0
 c516:  Y_206 >= 0
 c517:  Y_207 - Z_2 >= 0
 c518:  Y_208 >= 0
 c519:  Y_209 >= 0
 c520:  Y_210 >= 0
 c521:  Y_211 - Z_2 >= 0
 c522:  Y_212 >= 0
 c523:  Y_213 >= 0
 c524:  Y_214 >= 0
 c525:  Y_215 - Z_2 >= 0
 c526:  Y_216 >= 0
 c527:  Y_217 >= 0
 c528:  Y_218 >= 0
 c529:  Y_219 - Z_2 >= 0
 c530:  Y_220 >= 0
 c531:  Y_221 >= 0
 c532:  Y_222 >= 0
 c533:  Y_223 >= 0
 c534:  Y_224 >= 0
 c535:  Y_225 - Z_2 >= 0
 c536:  Y_226 >= 0
 c537:  Y_227 >= 0
 c538:  Y_228 - Z_2 >= 0
 c539:  Y_229 - Z_2 >= 0
 c540:  Y_230 - Z_2 >= 0
 c541:  Y_231 >= 0
 c542:  Y_232 - Z_2 >= 0
 c543:  Y_233 - Z_2 >= 0
 c544:  Y_234 >= 0
 c545:  Y_235 - Z_2 >= 0
 c546:  Y_236 >= 0
 c547:  Y_237 >= 0
 c548:  Y_238 >= 0
 c549:  Y_239 - Z_2 >= 0
 c550:  Y_240 >= 0
 c551:  Y_241 >= 0
 c552:  Y_242 >= 0
 c553:  Y_243 >= 0
 c554:  Y_244 - Z_2 >= 0
 c555:  Y_245 - Z_2 >= 0
 c556:  Y_246 - Z_2 >= 0
 c557:  Y_247 >= 0
 c558:  Y_248 >= 0
 c559:  Y_249 - Z_2 >= 0
 c560:  Y_250 - Z_2 >= 0
 c561:  Y_251 >= 0
 c562:  Y_252 - Z_2 >= 0
 c563:  Y_253 >= 0
 c564:  Y_254 >= 0
 c565:  Y_255 >= 0
 c566:  Y_256 >= 0
 c567:  Y_257 >= 0
 c568:  Y_258 >= 0
 c569:  Y_259 >= 0
 c570:  Y_260 >= 0
 c571:  Y_1 >= 0
 c572:  - Z_3 + Y_2 >= 0
 c573:  - Z_3 + Y_3 >= 0
 c574:  Y_4 >= 0
 c575:  Y_5 >= 0
 c576:  - Z_3 + Y_6 >= 0
 c577:  Y_7 >= 0
 c578:  Y_8 >= 0
 c579:  Y_9 >= 0
 c580:  Y_10 >= 0
 c581:  Y_11 >= 0
 c582:  Y_12 >= 0
 c583:  - Z_3 + Y_13 >= 0
 c584:  Y_14 >= 0
 c585:  - Z_3 + Y_15 >= 0
 c586:  Y_16 >= 0
 c587:  Y_17 - Z_3 >= 0
 c588:  Y_18 >= 0
 c589:  - Z_3 + Y_19 >= 0
 c590:  - Z_3 + Y_20 >= 0
 c591:  Y_21 >= 0
 c592:  Y_22 >= 0
 c593:  Y_23 - Z_3 >= 0
 c594:  - Z_3 + Y_24 >= 0
 c595:  Y_25 >= 0
 c596:  Y_26 >= 0
 c597:  Y_27 >= 0
 c598:  Y_28 >= 0
 c599:  Y_29 >= 0
 c600:  Y_30 >= 0
 c601:  Y_31 >= 0
 c602:  - Z_3 + Y_32 >= 0
 c603:  - Z_3 + Y_33 >= 0
 c604:  Y_34 >= 0
 c605:  Y_35 >= 0
 c606:  - Z_3 + Y_36 >= 0
 c607:  - Z_3 + Y_37 >= 0
 c608:  - Z_3 + Y_38 >= 0
 c609:  Y_39 >= 0
 c610:  - Z_3 + Y_40 >= 0
 c611:  Y_41 >= 0
 c612:  Y_42 >= 0
 c613:  Y_43 >= 0
 c614:  Y_44 >= 0
 c615:  Y_45 >= 0
 c616:  - Z_3 + Y_46 >= 0
 c617:  Y_47 - Z_3 >= 0
 c618:  - Z_3 + Y_48 >= 0
 c619:  - Z_3 + Y_49 >= 0
 c620:  Y_50 >= 0
 c621:  - Z_3 + Y_51 >= 0
 c622:  - Z_3 + Y_52 >= 0
 c623:  Y_53 >= 0
 c624:  - Z_3 + Y_54 >= 0
 c625:  Y_55 >= 0
 c626:  Y_56 >= 0
 c627:  Y_57 >= 0
 c628:  Y_58 >= 0
 c629:  Y_59 >= 0
 c630:  Y_60 >= 0
 c631:  - Z_3 + Y_61 >= 0
 c632:  - Z_3 + Y_62 >= 0
 c633:  Y_63 >= 0
 c634:  Y_64 >= 0
 c635:  - Z_3 + Y_65 >= 0
 c636:  Y_66 >= 0
 c637:  Y_67 >= 0
 c638:  Y_68 >= 0
 c639:  Y_69 - Z_3 >= 0
 c640:  Y_70 - Z_3 >= 0
 c641:  Y_71 >= 0
 c642:  Y_72 >= 0
 c643:  Y_73 >= 0
 c644:  Y_74 >= 0
 c645:  Y_75 >= 0
 c646:  Y_76 - Z_3 >= 0
 c647:  Y_77 >= 0
 c648:  Y_78 >= 0
 c649:  Y_79 >= 0
 c650:  Y_80 - Z_3 >= 0
 c651:  Y_81 >= 0
 c652:  Y_82 >= 0
 c653:  Y_83 >= 0
 c654:  Y_84 >= 0
 c655:  Y_85 >= 0
 c656:  Y_86 >= 0
 c657:  Y_87 - Z_3 >= 0
 c658:  Y_88 - Z_3 >= 0
 c659:  Y_89 >= 0
 c660:  Y_90 >= 0
 c661:  Y_91 >= 0
 c662:  Y_92 >= 0
 c663:  Y_93 >= 0
 c664:  Y_94 - Z_3 >= 0
 c665:  Y_95 >= 0
 c666:  Y_96 >= 0
 c667:  Y_97 >= 0
 c668:  Y_98 - Z_3 >= 0
 c669:  Y_99 >= 0
 c670:  Y_100 >= 0
 c671:  Y_101 >= 0
 c672:  Y_102 >= 0
 c673:  Y_103 - Z_3 >= 0
 c674:  Y_104 - Z_3 >= 0
 c675:  Y_105 >= 0
 c676:  Y_106 >= 0
 c677:  Y_107 >= 0
 c678:  Y_108 >= 0
 c679:  Y_109 >= 0
 c680:  Y_110 - Z_3 >= 0
 c681:  Y_111 >= 0
 c682:  Y_112 >= 0
 c683:  Y_113 >= 0
 c684:  Y_114 - Z_3 >= 0
 c685:  Y_115 >= 0
 c686:  Y_116 >= 0
 c687:  Y_117 >= 0
 c688:  Y_118 >= 0
 c689:  Y_119 - Z_3 >= 0
 c690:  Y_120 - Z_3 >= 0
 c691:  Y_121 >= 0
 c692:  Y_122 >= 0
 c693:  Y_123 >= 0
 c694:  Y_124 >= 0
 c695:  Y_125 >= 0
 c696:  Y_126 - Z_3 >= 0
 c697:  Y_127 >= 0
 c698:  Y_128 >= 0
 c699:  Y_129 >= 0
 c700:  Y_130 - Z_3 >= 0
 c701:  Y_131 >= 0
 c702:  Y_132 >= 0
 c703:  Y_133 >= 0
 c704:  Y_134 - Z_3 >= 0
 c705:  Y_135 >= 0
 c706:  Y_136 >= 0
 c707:  Y_137 >= 0
 c708:  Y_138 >= 0
 c709:  Y_139 >= 0
 c710:  Y_140 - Z_3 >= 0
 c711:  Y_141 >= 0
 c712:  Y_142 >= 0
 c713:  Y_143 >= 0
 c714:  Y_144 - Z_3 >= 0
 c715:  Y_145 >= 0
 c716:  Y_146 >= 0
 c717:  Y_147 >= 0
 c718:  Y_148 >= 0
 c719:  Y_149 - Z_3 >= 0
 c720:  Y_150 - Z_3 >= 0
 c721:  Y_151 - Z_3 >= 0
 c722:  Y_152 - Z_3 >= 0
 c723:  Y_153 - Z_3 >= 0
 c724:  Y_154 >= 0
 c725:  Y_155 - Z_3 >= 0
 c726:  Y_156 - Z_3 >= 0
 c727:  Y_157 - Z_3 >= 0
 c728:  Y_158 >= 0
 c729:  Y_159 - Z_3 >= 0
 c730:  Y_160 - Z_3 >= 0
 c731:  Y_161 - Z_3 >= 0
 c732:  Y_162 - Z_3 >= 0
 c733:  Y_163 - Z_3 >= 0
 c734:  Y_164 - Z_3 >= 0
 c735:  Y_165 - Z_3 >= 0
 c736:  Y_166 >= 0
 c737:  Y_167 - Z_3 >= 0
 c738:  Y_168 - Z_3 >= 0
 c739:  Y_169 - Z_3 >= 0
 c740:  Y_170 >= 0
 c741:  Y_171 - Z_3 >= 0
 c742:  Y_172 - Z_3 >= 0
 c743:  Y_173 - Z_3 >= 0
 c744:  Y_174 >= 0
 c745:  Y_175 >= 0
 c746:  Y_176 >= 0
 c747:  Y_177 >= 0
 c748:  Y_178 - Z_3 >= 0
 c749:  Y_179 >= 0
 c750:  Y_180 >= 0
 c751:  Y_181 >= 0
 c752:  Y_182 - Z_3 >= 0
 c753:  Y_183 >= 0
 c754:  Y_184 >= 0
 c755:  Y_185 >= 0
 c756:  Y_186 >= 0
 c757:  Y_187 >= 0
 c758:  Y_188 - Z_3 >= 0
 c759:  Y_189 >= 0
 c760:  Y_190 >= 0
 c761:  Y_191 >= 0
 c762:  Y_192 - Z_3 >= 0
 c763:  Y_193 >= 0
 c764:  Y_194 >= 0
 c765:  Y_195 >= 0
 c766:  Y_196 >= 0
 c767:  Y_197 >= 0
 c768:  Y_198 - Z_3 >= 0
 c769:  Y_199 >= 0
 c770:  Y_200 >= 0
 c771:  Y_201 >= 0
 c772:  Y_202 - Z_3 >= 0
 c773:  Y_203 >= 0
 c774:  Y_204 >= 0
 c775:  Y_205 >= 0
 c776:  Y_206 - Z_3 >= 0
 c777:  Y_207 >= 0
 c778:  Y_208 >= 0
 c779:  Y_209 >= 0
 c780:  Y_210 - Z_3 >= 0
 c781:  Y_211 >= 0
 c782:  Y_212 >= 0
 c783:  Y_213 >= 0
 c784:  Y_214 - Z_3 >= 0
 c785:  Y_215 >= 0
 c786:  Y_216 >= 0
 c787:  Y_217 >= 0
 c788:  Y_218 - Z_3 >= 0
 c789:  Y_219 >= 0
 c790:  Y_220 >= 0
 c791:  Y_221 >= 0
 c792:  Y_222 - Z_3 >= 0
 c793:  Y_223 - Z_3 >= 0
 c794:  Y_224 >= 0
 c795:  Y_225 - Z_3 >= 0
 c796:  Y_226 - Z_3 >= 0
 c797:  Y_227 - Z_3 >= 0
 c798:  Y_228 >= 0
 c799:  Y_229 >= 0
 c800:  Y_230 - Z_3 >= 0
 c801:  Y_231 >= 0
 c802:  Y_232 >= 0
 c803:  Y_233 >= 0
 c804:  Y_234 - Z_3 >= 0
 c805:  Y_235 >= 0
 c806:  Y_236 >= 0
 c807:  Y_237 >= 0
 c808:  Y_238 - Z_3 >= 0
 c809:  Y_239 >= 0
 c810:  Y_240 >= 0
 c811:  Y_241 >= 0
 c812:  Y_242 - Z_3 >= 0
 c813:  Y_243 - Z_3 >= 0
 c814:  Y_244 >= 0
 c815:  Y_245 >= 0
 c816:  Y_246 >= 0
 c817:  Y_247 >= 0
 c818:  Y_248 - Z_3 >= 0
 c819:  Y_249 - Z_3 >= 0
 c820:  Y_250 >= 0
 c821:  Y_251 >= 0
 c822:  Y_252 >= 0
 c823:  Y_253 - Z_3 >= 0
 c824:  Y_254 >= 0
 c825:  Y_255 >= 0
 c826:  Y_256 >= 0
 c827:  Y_257 - Z_3 >= 0
 c828:  Y_258 >= 0
 c829:  Y_259 >= 0
 c830:  Y_260 >= 0
 c831:  Y_1 >= 0
 c832:  Y_2 >= 0
 c833:  Y_3 >= 0
 c834:  Y_4 >= 0
 c835:  Y_5 >= 0
 c836:  Y_6 >= 0
 c837:  - Z_4 + Y_7 >= 0
 c838:  - Z_4 + Y_8 >= 0
 c839:  Y_9 >= 0
 c840:  - Z_4 + Y_10 >= 0
 c841:  Y_11 - Z_4 >= 0
 c842:  - Z_4 + Y_12 >= 0
 c843:  - Z_4 + Y_13 >= 0
 c844:  - Z_4 + Y_14 >= 0
 c845:  Y_15 >= 0
 c846:  Y_16 >= 0
 c847:  Y_17 - Z_4 >= 0
 c848:  - Z_4 + Y_18 >= 0
 c849:  Y_19 >= 0
 c850:  Y_20 >= 0
 c851:  Y_21 >= 0
 c852:  Y_22 >= 0
 c853:  Y_23 >= 0
 c854:  Y_24 >= 0
 c855:  Y_25 >= 0
 c856:  Y_26 >= 0
 c857:  Y_27 >= 0
 c858:  Y_28 >= 0
 c859:  Y_29 >= 0
 c860:  Y_30 >= 0
 c861:  - Z_4 + Y_31 >= 0
 c862:  Y_32 >= 0
 c863:  - Z_4 + Y_33 >= 0
 c864:  Y_34 >= 0
 c865:  Y_35 - Z_4 >= 0
 c866:  Y_36 >= 0
 c867:  Y_37 >= 0
 c868:  - Z_4 + Y_38 >= 0
 c869:  - Z_4 + Y_39 >= 0
 c870:  - Z_4 + Y_40 >= 0
 c871:  Y_41 - Z_4 >= 0
 c872:  Y_42 >= 0
 c873:  - Z_4 + Y_43 >= 0
 c874:  Y_44 >= 0
 c875:  - Z_4 + Y_45 >= 0
 c876:  Y_46 >= 0
 c877:  Y_47 - Z_4 >= 0
 c878:  Y_48 >= 0
 c879:  Y_49 >= 0
 c880:  Y_50 >= 0
 c881:  Y_51 >= 0
 c882:  Y_52 >= 0
 c883:  Y_53 >= 0
 c884:  Y_54 >= 0
 c885:  - Z_4 + Y_55 >= 0
 c886:  Y_56 >= 0
 c887:  - Z_4 + Y_57 >= 0
 c888:  Y_58 >= 0
 c889:  Y_59 - Z_4 >= 0
 c890:  Y_60 >= 0
 c891:  - Z_4 + Y_61 >= 0
 c892:  Y_62 >= 0
 c893:  Y_63 >= 0
 c894:  - Z_4 + Y_64 >= 0
 c895:  - Z_4 + Y_65 >= 0
 c896:  Y_66 >= 0
 c897:  Y_67 - Z_4 >= 0
 c898:  Y_68 - Z_4 >= 0
 c899:  Y_69 >= 0
 c900:  Y_70 >= 0
 c901:  Y_71 >= 0
 c902:  Y_72 >= 0
 c903:  Y_73 >= 0
 c904:  Y_74 >= 0
 c905:  Y_75 - Z_4 >= 0
 c906:  Y_76 >= 0
 c907:  Y_77 >= 0
 c908:  Y_78 >= 0
 c909:  Y_79 - Z_4 >= 0
 c910:  Y_80 >= 0
 c911:  Y_81 >= 0
 c912:  Y_82 >= 0
 c913:  Y_83 - Z_4 >= 0
 c914:  Y_84 >= 0
 c915:  Y_85 - Z_4 >= 0
 c916:  Y_86 - Z_4 >= 0
 c917:  Y_87 >= 0
 c918:  Y_88 >= 0
 c919:  Y_89 >= 0
 c920:  Y_90 >= 0
 c921:  Y_91 >= 0
 c922:  Y_92 >= 0
 c923:  Y_93 - Z_4 >= 0
 c924:  Y_94 >= 0
 c925:  Y_95 >= 0
 c926:  Y_96 >= 0
 c927:  Y_97 - Z_4 >= 0
 c928:  Y_98 >= 0
 c929:  Y_99 >= 0
 c930:  Y_100 >= 0
 c931:  Y_101 - Z_4 >= 0
 c932:  Y_102 - Z_4 >= 0
 c933:  Y_103 >= 0
 c934:  Y_104 >= 0
 c935:  Y_105 >= 0
 c936:  Y_106 >= 0
 c937:  Y_107 >= 0
 c938:  Y_108 >= 0
 c939:  Y_109 - Z_4 >= 0
 c940:  Y_110 >= 0
 c941:  Y_111 >= 0
 c942:  Y_112 >= 0
 c943:  Y_113 - Z_4 >= 0
 c944:  Y_114 >= 0
 c945:  Y_115 >= 0
 c946:  Y_116 >= 0
 c947:  Y_117 - Z_4 >= 0
 c948:  Y_118 >= 0
 c949:  Y_119 - Z_4 >= 0
 c950:  Y_120 - Z_4 >= 0
 c951:  Y_121 - Z_4 >= 0
 c952:  Y_122 - Z_4 >= 0
 c953:  Y_123 - Z_4 >= 0
 c954:  Y_124 - Z_4 >= 0
 c955:  Y_125 >= 0
 c956:  Y_126 - Z_4 >= 0
 c957:  Y_127 - Z_4 >= 0
 c958:  Y_128 - Z_4 >= 0
 c959:  Y_129 >= 0
 c960:  Y_130 - Z_4 >= 0
 c961:  Y_131 - Z_4 >= 0
 c962:  Y_132 - Z_4 >= 0
 c963:  Y_133 >= 0
 c964:  Y_134 - Z_4 >= 0
 c965:  Y_135 - Z_4 >= 0
 c966:  Y_136 - Z_4 >= 0
 c967:  Y_137 - Z_4 >= 0
 c968:  Y_138 - Z_4 >= 0
 c969:  Y_139 >= 0
 c970:  Y_140 - Z_4 >= 0
 c971:  Y_141 - Z_4 >= 0
 c972:  Y_142 - Z_4 >= 0
 c973:  Y_143 >= 0
 c974:  Y_144 - Z_4 >= 0
 c975:  Y_145 - Z_4 >= 0
 c976:  Y_146 - Z_4 >= 0
 c977:  Y_147 >= 0
 c978:  Y_148 >= 0
 c979:  Y_149 >= 0
 c980:  Y_150 >= 0
 c981:  Y_151 >= 0
 c982:  Y_152 >= 0
 c983:  Y_153 - Z_4 >= 0
 c984:  Y_154 >= 0
 c985:  Y_155 >= 0
 c986:  Y_156 >= 0
 c987:  Y_157 - Z_4 >= 0
 c988:  Y_158 >= 0
 c989:  Y_159 >= 0
 c990:  Y_160 >= 0
 c991:  Y_161 - Z_4 >= 0
 c992:  Y_162 >= 0
 c993:  Y_163 >= 0
 c994:  Y_164 >= 0
 c995:  Y_165 - Z_4 >= 0
 c996:  Y_166 >= 0
 c997:  Y_167 >= 0
 c998:  Y_168 >= 0
 c999:  Y_169 - Z_4 >= 0
 c1000: Y_170 >= 0
 c1001: Y_171 >= 0
 c1002: Y_172 >= 0
 c1003: Y_173 - Z_4 >= 0
 c1004: Y_174 >= 0
 c1005: Y_175 >= 0
 c1006: Y_176 >= 0
 c1007: Y_177 - Z_4 >= 0
 c1008: Y_178 >= 0
 c1009: Y_179 >= 0
 c1010: Y_180 >= 0
 c1011: Y_181 - Z_4 >= 0
 c1012: Y_182 >= 0
 c1013: Y_183 >= 0
 c1014: Y_184 >= 0
 c1015: Y_185 - Z_4 >= 0
 c1016: Y_186 >= 0
 c1017: Y_187 - Z_4 >= 0
 c1018: Y_188 >= 0
 c1019: Y_189 >= 0
 c1020: Y_190 >= 0
 c1021: Y_191 - Z_4 >= 0
 c1022: Y_192 >= 0
 c1023: Y_193 >= 0
 c1024: Y_194 >= 0
 c1025: Y_195 - Z_4 >= 0
 c1026: Y_196 >= 0
 c1027: Y_197 - Z_4 >= 0
 c1028: Y_198 >= 0
 c1029: Y_199 >= 0
 c1030: Y_200 >= 0
 c1031: Y_201 - Z_4 >= 0
 c1032: Y_202 >= 0
 c1033: Y_203 >= 0
 c1034: Y_204 >= 0
 c1035: Y_205 - Z_4 >= 0
 c1036: Y_206 >= 0
 c1037: Y_207 >= 0
 c1038: Y_208 >= 0
 c1039: Y_209 - Z_4 >= 0
 c1040: Y_210 >= 0
 c1041: Y_211 >= 0
 c1042: Y_212 >= 0
 c1043: Y_213 - Z_4 >= 0
 c1044: Y_214 - Z_4 >= 0
 c1045: Y_215 - Z_4 >= 0
 c1046: Y_216 - Z_4 >= 0
 c1047: Y_217 >= 0
 c1048: Y_218 - Z_4 >= 0
 c1049: Y_219 - Z_4 >= 0
 c1050: Y_220 - Z_4 >= 0
 c1051: Y_221 >= 0
 c1052: Y_222 >= 0
 c1053: Y_223 - Z_4 >= 0
 c1054: Y_224 >= 0
 c1055: Y_225 >= 0
 c1056: Y_226 >= 0
 c1057: Y_227 - Z_4 >= 0
 c1058: Y_228 >= 0
 c1059: Y_229 - Z_4 >= 0
 c1060: Y_230 >= 0
 c1061: Y_231 >= 0
 c1062: Y_232 >= 0
 c1063: Y_233 - Z_4 >= 0
 c1064: Y_234 >= 0
 c1065: Y_235 >= 0
 c1066: Y_236 >= 0
 c1067: Y_237 - Z_4 >= 0
 c1068: Y_238 - Z_4 >= 0
 c1069: Y_239 - Z_4 >= 0
 c1070: Y_240 - Z_4 >= 0
 c1071: Y_241 >= 0
 c1072: Y_242 >= 0
 c1073: Y_243 - Z_4 >= 0
 c1074: Y_244 >= 0
 c1075: Y_245 - Z_4 >= 0
 c1076: Y_246 >= 0
 c1077: Y_247 - Z_4 >= 0
 c1078: Y_248 - Z_4 >= 0
 c1079: Y_249 >= 0
 c1080: Y_250 >= 0
 c1081: Y_251 - Z_4 >= 0
 c1082: Y_252 - Z_4 >= 0
 c1083: Y_253 - Z_4 >= 0
 c1084: Y_254 >= 0
 c1085: Y_255 - Z_4 >= 0
 c1086: Y_256 - Z_4 >= 0
 c1087: Y_257 - Z_4 >= 0
 c1088: Y_258 >= 0
 c1089: Y_259 >= 0
 c1090: Y_260 - Z_4 >= 0
 c1091: 38 Z_1 <= 39.9625002071261
 c1092: 37 Z_2 <= 39.9625002071261
 c1093: 33 Z_3 <= 39.9625002071261
 c1094: 31 Z_4 <= 39.9625002071261
 c1095: H_1 + Z_2 + Z5 + Z_1 + Z_4 + Z_3 >= 4
 c1096: H_1 - Z_2 - Z5 - Z_1 - Z_4 - Z_3 >= -4
 c1097: Y_1 >= 0
 c1098: - Z5 + Y_2 >= 0
 c1099: - Z5 + Y_3 >= 0
 c1100: Y_4 >= 0
 c1101: Y_5 >= 0
 c1102: - Z5 + Y_6 >= 0
 c1103: Y_7 >= 0
 c1104: - Z5 + Y_8 >= 0
 c1105: - Z5 + Y_9 >= 0
 c1106: - Z5 + Y_10 >= 0
 c1107: Y_11 >= 0
 c1108: - Z5 + Y_12 >= 0
 c1109: Y_13 >= 0
 c1110: - Z5 + Y_14 >= 0
 c1111: - Z5 + Y_15 >= 0
 c1112: Y_16 >= 0
 c1113: Y_17 >= 0
 c1114: - Z5 + Y_18 >= 0
 c1115: Y_19 >= 0
 c1116: - Z5 + Y_20 >= 0
 c1117: - Z5 + Y_21 >= 0
 c1118: Y_22 >= 0
 c1119: Y_23 >= 0
 c1120: - Z5 + Y_24 >= 0
 c1121: Y_25 >= 0
 c1122: - Z5 + Y_26 >= 0
 c1123: - Z5 + Y_27 >= 0
 c1124: Y_28 >= 0
 c1125: Y_29 >= 0
 c1126: - Z5 + Y_30 >= 0
 c1127: Y_31 >= 0
 c1128: - Z5 + Y_32 >= 0
 c1129: - Z5 + Y_33 >= 0
 c1130: Y_34 >= 0
 c1131: Y_35 >= 0
 c1132: - Z5 + Y_36 >= 0
 c1133: Y_37 >= 0
 c1134: Y_38 >= 0
 c1135: Y_39 >= 0
 c1136: Y_40 >= 0
 c1137: Y_41 >= 0
 c1138: Y_42 >= 0
 c1139: Y_43 >= 0
 c1140: - Z5 + Y_44 >= 0
 c1141: - Z5 + Y_45 >= 0
 c1142: Y_46 >= 0
 c1143: Y_47 >= 0
 c1144: - Z5 + Y_48 >= 0
 c1145: Y_49 >= 0
 c1146: Y_50 >= 0
 c1147: Y_51 >= 0
 c1148: Y_52 >= 0
 c1149: Y_53 >= 0
 c1150: Y_54 >= 0
 c1151: Y_55 >= 0
 c1152: Y_56 >= 0
 c1153: Y_57 >= 0
 c1154: Y_58 >= 0
 c1155: Y_59 >= 0
 c1156: Y_60 >= 0
 c1157: - Z5 + Y_61 >= 0
 c1158: - Z5 + Y_62 >= 0
 c1159: Y_63 >= 0
 c1160: - Z5 + Y_64 >= 0
 c1161: Y_65 >= 0
 c1162: Y_66 >= 0
 c1163: Y_67 >= 0
 c1164: Y_68 >= 0
 c1165: Y_69 >= 0
 c1166: Y_70 >= 0
 c1167: Y_71 >= 0
 c1168: Y_72 >= 0
 c1169: Y_73 >= 0
 c1170: Y_74 >= 0
 c1171: Y_75 >= 0
 c1172: Y_76 >= 0
 c1173: Y_77 >= 0
 c1174: Y_78 >= 0
 c1175: Y_79 >= 0
 c1176: Y_80 >= 0
 c1177: Y_81 >= 0
 c1178: Y_82 >= 0
 c1179: Y_83 >= 0
 c1180: Y_84 >= 0
 c1181: Y_85 >= 0
 c1182: Y_86 >= 0
 c1183: Y_87 >= 0
 c1184: Y_88 >= 0
 c1185: Y_89 >= 0
 c1186: Y_90 >= 0
 c1187: Y_91 >= 0
 c1188: Y_92 >= 0
 c1189: Y_93 >= 0
 c1190: Y_94 >= 0
 c1191: Y_95 >= 0
 c1192: Y_96 >= 0
 c1193: Y_97 >= 0
 c1194: Y_98 >= 0
 c1195: Y_99 >= 0
 c1196: Y_100 >= 0
 c1197: Y_101 >= 0
 c1198: Y_102 >= 0
 c1199: Y_103 >= 0
 c1200: Y_104 >= 0
 c1201: Y_105 >= 0
 c1202: Y_106 >= 0
 c1203: Y_107 >= 0
 c1204: Y_108 >= 0
 c1205: Y_109 >= 0
 c1206: Y_110 >= 0
 c1207: Y_111 >= 0
 c1208: Y_112 >= 0
 c1209: Y_113 >= 0
 c1210: Y_114 >= 0
 c1211: Y_115 >= 0
 c1212: Y_116 >= 0
 c1213: Y_117 >= 0
 c1214: Y_118 >= 0
 c1215: Y_119 >= 0
 c1216: Y_120 >= 0
 c1217: Y_121 >= 0
 c1218: Y_122 >= 0
 c1219: Y_123 >= 0
 c1220: Y_124 >= 0
 c1221: Y_125 >= 0
 c1222: Y_126 >= 0
 c1223: Y_127 >= 0
 c1224: Y_128 >= 0
 c1225: Y_129 >= 0
 c1226: Y_130 >= 0
 c1227: Y_131 >= 0
 c1228: Y_132 >= 0
 c1229: Y_133 >= 0
 c1230: Y_134 >= 0
 c1231: Y_135 >= 0
 c1232: Y_136 >= 0
 c1233: Y_137 >= 0
 c1234: Y_138 >= 0
 c1235: Y_139 >= 0
 c1236: Y_140 >= 0
 c1237: Y_141 >= 0
 c1238: Y_142 >= 0
 c1239: Y_143 >= 0
 c1240: Y_144 >= 0
 c1241: Y_145 >= 0
 c1242: Y_146 >= 0
 c1243: Y_147 >= 0
 c1244: Y_148 >= 0
 c1245: Y_149 >= 0
 c1246: Y_150 >= 0
 c1247: Y_151 >= 0
 c1248: Y_152 >= 0
 c1249: Y_153 >= 0
 c1250: Y_154 >= 0
 c1251: Y_155 >= 0
 c1252: Y_156 >= 0
 c1253: Y_157 >= 0
 c1254: Y_158 >= 0
 c1255: Y_159 >= 0
 c1256: Y_160 >= 0
 c1257: Y_161 >= 0
 c1258: Y_162 >= 0
 c1259: Y_163 >= 0
 c1260: Y_164 >= 0
 c1261: Y_165 >= 0
 c1262: Y_166 >= 0
 c1263: Y_167 >= 0
 c1264: Y_168 >= 0
 c1265: Y_169 >= 0
 c1266: Y_170 >= 0
 c1267: Y_171 >= 0
 c1268: Y_172 >= 0
 c1269: Y_173 >= 0
 c1270: Y_174 >= 0
 c1271: Y_175 >= 0
 c1272: Y_176 >= 0
 c1273: Y_177 >= 0
 c1274: Y_178 >= 0
 c1275: Y_179 >= 0
 c1276: Y_180 >= 0
 c1277: Y_181 >= 0
 c1278: Y_182 >= 0
 c1279: Y_183 >= 0
 c1280: Y_184 >= 0
 c1281: Y_185 >= 0
 c1282: Y_186 >= 0
 c1283: Y_187 >= 0
 c1284: Y_188 >= 0
 c1285: Y_189 >= 0
 c1286: Y_190 >= 0
 c1287: Y_191 >= 0
 c1288: Y_192 >= 0
 c1289: Y_193 >= 0
 c1290: Y_194 >= 0
 c1291: Y_195 >= 0
 c1292: Y_196 >= 0
 c1293: Y_197 >= 0
 c1294: Y_198 >= 0
 c1295: Y_199 >= 0
 c1296: Y_200 >= 0
 c1297: Y_201 >= 0
 c1298: Y_202 >= 0
 c1299: Y_203 >= 0
 c1300: Y_204 >= 0
 c1301: Y_205 >= 0
 c1302: Y_206 >= 0
 c1303: Y_207 >= 0
 c1304: Y_208 >= 0
 c1305: Y_209 >= 0
 c1306: Y_210 >= 0
 c1307: Y_211 >= 0
 c1308: Y_212 >= 0
 c1309: Y_213 >= 0
 c1310: Y_214 >= 0
 c1311: Y_215 >= 0
 c1312: Y_216 >= 0
 c1313: Y_217 >= 0
 c1314: Y_218 >= 0
 c1315: Y_219 >= 0
 c1316: Y_220 >= 0
 c1317: Y_221 >= 0
 c1318: Y_222 >= 0
 c1319: Y_223 >= 0
 c1320: Y_224 >= 0
 c1321: Y_225 >= 0
 c1322: Y_226 >= 0
 c1323: Y_227 >= 0
 c1324: Y_228 >= 0
 c1325: Y_229 >= 0
 c1326: Y_230 >= 0
 c1327: Y_231 >= 0
 c1328: Y_232 >= 0
 c1329: Y_233 >= 0
 c1330: Y_234 >= 0
 c1331: Y_235 >= 0
 c1332: Y_236 >= 0
 c1333: Y_237 >= 0
 c1334: Y_238 >= 0
 c1335: Y_239 >= 0
 c1336: Y_240 >= 0
 c1337: Y_241 >= 0
 c1338: Y_242 >= 0
 c1339: Y_243 >= 0
 c1340: Y_244 >= 0
 c1341: Y_245 >= 0
 c1342: Y_246 >= 0
 c1343: Y_247 >= 0
 c1344: Y_248 >= 0
 c1345: Y_249 >= 0
 c1346: Y_250 >= 0
 c1347: Y_251 >= 0
 c1348: Y_252 >= 0
 c1349: Y_253 >= 0
 c1350: Y_254 >= 0
 c1351: Y_255 >= 0
 c1352: Y_256 >= 0
 c1353: Y_257 >= 0
 c1354: Y_258 >= 0
 c1355: Y_259 >= 0
 c1356: Y_260 >= 0
 c1357: 101 Z5 <= 39.9625002071261
End
